%%% static parameters %%%
timespan = 1;
Fact = [2];
Distr1 = [5];
Distr2 = [10];
Clients_N = [100];
Demand_W = [15];
Lt0 = [4];
Lt1 = [4];
SS_ = [0.85];
DS_D = [8];
K = [200];
MA = [500];
%%% dynamic parameters %%%
lost_ratio_sales_ret_th = 0.47498494491665855;
lost_ratio_sales_ret_w = 22;
lost_ratio_sales_dis_th = 0.7873267108626886;
lost_ratio_sales_dis_w = 26;
lost_ratio_sales_fac_th = 0.41358547664683154;
lost_ratio_sales_fac_w = 71;
stock_customer_MA_mean_relative_th = 0.6074516760233603;
stock_customer_MA_mean_relative_w = 39;
stock_distributor_MA_mean_relative_th = 0.06165874768880575;
stock_distributor_MA_mean_relative_w = 53;
stock_retailer_MA_mean_relative_th = 0.6575012298619844;
stock_retailer_MA_mean_relative_w = 70;
stock_factory_MA_mean_relative_th = 0.7982008212521361;
stock_factory_MA_mean_relative_w = 43;
